(declare-fun x6 () Real)
(declare-fun x4 () Real)
(declare-fun x2 () Real)
(declare-fun x1 () Real)
(declare-fun x5 () Real)
(declare-fun x3 () Real)
(assert (let ((a!1 (= (- (+ (+ x1 x3) (* 3 x4) (* 9 x5)) (* 6 x6)) 0))
      (a!2 (= (- (+ (+ x1 x3) (* 2 x4) (* 6 x5)) (* 4 x6)) 0))
      (a!3 (and (= (+ x1 x3) 0)
                (= (+ (* (- 11) x1) (* 5 x2) (* 3 x4)) 0)
                (= (+ (- x1 x2) x5) 0)))
      (a!4 (< (- (+ x1 (* 2 x2)) (* 3 x6)) 0))
      (a!5 (+ (+ (- x1 (* 7 x2)) (* 3 x4)) (* 12 x5)))
      (a!6 (- (+ (- x1 (* 7 x2)) (* 3 x4)) (* 8 x6))))
  (or (and a!1 a!2 (or (not a!3) a!4))
      (and (= (+ x1 x3) 0) (= a!5 0) (= a!6 0)))))

